0011111111100000
0000011111000000
0000000111000000
0000000011000000
0000111100110000
0001111000011100
0001110000011110
0011100000011110
0000000000000000
0000000000000000
0000000000000000
0000000000000000
0000000000000000
0000000000000000
0000000000000000
0000000000000000